peakDumbCharging = 14800; 
Machine = anon_enum(16); 
machineSpeed = [3700,3700,3700,3700,3700,3700,3700,3700,3700,3700,3700,3700,3700,3700,3700,3700]; 
machineLoad = [3700,3700,3700,3700,3700,3700,3700,3700,3700,3700,3700,3700,3700,3700,3700,3700]; 
Car = anon_enum(16); 
demandCar = [16200,16480,7200,18720,4280,4160,14600,11640,11040,1120,11680,1680,10120,12280,10880,20000]; 
arrivalCar = [63,63,54,51,50,50,48,46,45,44,44,42,38,36,35,28]; 
departureCar = [71,71,59,58,54,52,68,50,51,45,48,44,44,40,42,36]; 
